c description: Random 5-CNF over 15 variables and 95 clauses
c generator: CNFgen (0.9.0)
c copyright: (C) 2012-2020 Massimo Lauria <massimo.lauria@uniroma1.it>
c url: https://massimolauria.net/cnfgen
c
p cnf 15 95
-1 3 4 -12 15 0
3 4 6 7 15 0
-7 -8 9 -10 -15 0
3 -4 -10 13 -15 0
-1 2 10 -13 15 0
-3 6 11 12 13 0
-1 -3 5 6 -9 0
2 5 -8 -10 -14 0
-4 -5 12 14 -15 0
1 -4 -5 8 9 0
-1 -4 9 13 -14 0
1 -3 5 -13 15 0
-3 -9 -10 11 13 0
-4 -7 -8 10 11 0
-2 -3 5 -8 11 0
-3 -4 5 12 -14 0
2 3 -5 -14 15 0
3 -4 -5 -12 -13 0
1 6 8 10 15 0
6 7 -9 10 -12 0
2 6 -10 -12 15 0
5 -6 -8 11 -13 0
7 8 9 -13 -14 0
-1 -4 8 11 15 0
5 8 -11 14 -15 0
5 6 -10 14 -15 0
1 2 6 7 -8 0
-2 -5 10 -12 14 0
2 6 -8 12 14 0
7 -10 -11 12 -14 0
3 7 11 14 -15 0
-4 6 11 -12 14 0
-1 -6 -8 11 -12 0
-2 -3 -5 9 -11 0
-3 -7 -11 13 -14 0
1 -4 7 -8 -13 0
1 -9 -12 -14 15 0
-3 -4 5 10 -15 0
6 -7 8 -9 10 0
1 -6 -7 -9 -12 0
2 7 -9 10 -13 0
-2 -10 -11 12 13 0
1 5 9 -13 15 0
1 9 10 13 14 0
-1 -4 12 -13 14 0
3 5 -7 11 14 0
5 9 -11 -12 -14 0
8 -9 11 12 -13 0
-2 -4 6 -13 -15 0
-3 -4 -5 -9 13 0
-2 -5 8 -10 -12 0
-2 3 -6 10 11 0
-9 11 12 14 -15 0
4 5 7 10 -11 0
-2 5 -7 -8 13 0
-1 -4 -9 -12 -14 0
1 -4 -7 -8 -11 0
3 9 10 -11 13 0
3 -6 -7 8 -13 0
-2 -4 5 9 -13 0
5 -6 -7 11 12 0
-1 3 5 12 14 0
3 4 -7 -12 14 0
-1 8 -9 -11 -14 0
3 -4 6 11 -12 0
4 -7 9 -13 15 0
-1 -2 -7 9 -15 0
-3 6 -10 -11 13 0
-2 -3 8 -13 14 0
5 7 10 -14 -15 0
1 4 8 -11 12 0
-2 -7 -8 9 -12 0
1 -3 -9 10 15 0
4 7 11 -13 14 0
-2 -3 7 -8 -15 0
-1 2 -3 -10 -13 0
-2 4 -5 8 -11 0
-3 6 -7 14 15 0
-2 -5 6 -11 15 0
-1 -2 -6 9 -12 0
-2 -3 7 9 15 0
-2 3 4 7 -13 0
6 -8 -10 -12 15 0
-1 -2 -3 -7 -14 0
2 -7 -11 -13 -15 0
2 6 7 -9 -11 0
5 6 -7 8 11 0
2 4 6 10 -13 0
-7 -10 13 -14 15 0
-3 4 8 9 -10 0
-5 -9 -11 -12 -14 0
3 5 6 14 15 0
-1 9 11 -12 14 0
-1 3 9 -13 -15 0
-1 3 -5 11 12 0